c SAT problem
p wcnf 42 46
1 75 60 0
1 75 3165 0
1 -90 -3105 0
1 105 3150 0
1 -105 -3120 0
1 -3120 120 0
1 3135 105 0
1 3150 -136 0
1 3150 3165 0
1 -3165 75 0
1 3165 60 0
1 -165 150 0
1 3060 -165 0
1 -3075 195 0
1 -180 181 0
1 -195 -180 0
1 225 3015 0
1 -225 -210 0
1 -3000 -195 0
1 -3000 -150 0
1 3015 -195 0
1 -3030 -165 0
1 -3045 225 0
1 -136 3270 0
1 136 3240 0
1 136 -121 0
1 3240 -181 0
1 3240 -151 0
1 3255 196 0
1 -181 -3255 0
1 -196 3210 0
1 196 3180 0
1 211 226 0
1 -3180 151 0
1 3180 285 0
1 3210 -181 0
1 3210 151 0
1 -240 3030 0
1 255 3105 0
1 -255 3060 0
1 270 -3180 0
1 -3121 3136 0
1 3136 226 0
1 -3136 270 0
1 3151 -3150 0
1 3151 -3166 0
